32      4       
16      13      15      16      
0       0       0       0       0       2       2       7       
3       1       1       1       4       1       3       
10      16      1       5       6       1       4       
4       3       2       1       1       1       5       
5       1       1       1       6       2       12      6       
5       1       4       7       1       1       8       
1       2       1       7       4       1       8       
3       2       7       2       1       1       9       
2       5       5       5       5       1       10      
10      4       6       4       6       1       11      
8       1       1       1       6       1       13      
5       1       4       2       8       1       13      
9       2       8       1       7       1       14      
7       7       1       10      1       1       15      
3       1       5       13      5       2       20      16      
7       6       1       1       1       2       23      17      
7       1       1       1       2       1       18      
6       2       6       6       5       1       19      
9       11      1       7       8       2       31      21      
6       1       1       1       1       2       31      22      
9       3       11      1       1       1       22      
5       7       1       1       16      2       30      24      
5       1       3       7       1       2       30      24      
7       6       3       1       6       1       25      
3       7       6       7       7       1       26      
2       1       8       7       1       1       27      
6       9       1       4       6       1       28      
9       1       1       4       1       1       29      
7       6       1       1       1       1       32      
7       10      5       1       1       1       32      
9       1       1       3       1       1       32      
0       0       0       0       0       0       
